param Cmax:=
	1	5000
	2	3000
	3	4000
;
param Por: 
		1		2		3:=
	1	0.15	0.10	0.05
	2	0.20	0.30	0.10
	3	0.40	0.10	0.70
	4	0.25	0.40	0.10
;
param M = 10000;
param  CT:= 
	1	70
	2	50
	3	65
;
param  PV:= 
	1	250
	2	170
;

